p cnf 93 314
5 -3 0
5 4 0
3 -4 -5 0
2 5 -6 0
-2 -5 -6 0
2 -5 6 0
-2 5 6 0
2 -6 -7 0
-2 6 -7 0
2 6 7 0
-2 -6 7 0
7 -8 -9 0
-7 8 -9 0
7 8 9 0
-7 -8 9 0
10 -1 0
10 -9 0
1 9 -10 0
-11 -12 -13 0
11 12 -13 0
-11 12 13 0
11 -12 13 0
-15 13 0
-15 -14 0
-13 14 15 0
16 15 0
16 4 0
-15 -4 -16 0
17 16 0
17 -5 0
-16 5 -17 0
18 -8 0
18 -1 0
8 1 -18 0
19 -18 0
19 4 0
18 -4 -19 0
20 -1 0
20 19 0
1 -19 -20 0
-21 -20 0
-21 -2 0
20 2 21 0
22 17 0
22 -21 0
-17 21 -22 0
-23 -10 0
-23 22 0
10 -22 23 0
24 1 -25 0
-24 -1 -25 0
24 -1 25 0
-24 1 25 0
26 -1 0
26 -25 0
1 25 -26 0
-25 27 -28 0
25 -27 -28 0
-25 -27 28 0
25 27 28 0
29 -26 0
29 28 0
26 -28 -29 0
30 11 0
30 29 0
-11 -29 -30 0
-32 25 0
-32 -16 0
-25 16 32 0
-33 -25 0
-33 -32 0
25 32 33 0
-31 33 -34 0
31 -33 -34 0
-31 -33 34 0
31 33 34 0
35 30 0
35 -34 0
-30 34 -35 0
36 29 0
36 1 0
-29 -1 -36 0
37 -35 0
37 36 0
35 -36 -37 0
-38 -12 0
-38 6 0
12 -6 38 0
1 -38 -39 0
-1 38 -39 0
1 38 39 0
-1 -38 39 0
-40 39 0
-40 -19 0
-39 19 40 0
32 -40 -41 0
-32 40 -41 0
32 40 41 0
-32 -40 41 0
42 -8 0
42 41 0
8 -41 -42 0
11 24 -43 0
-11 -24 -43 0
11 -24 43 0
-11 24 43 0
-44 42 0
-44 -43 0
-42 43 44 0
-45 37 0
-45 -44 0
-37 44 45 0
-46 -13 0
-46 -24 0
13 24 46 0
-48 5 0
-48 -26 0
-5 26 48 0
49 47 0
49 48 0
-47 -48 -49 0
-50 46 0
-50 49 0
-46 -49 50 0
51 -5 0
51 16 0
5 -16 -51 0
-52 50 0
-52 -51 0
-50 51 52 0
-53 -5 -54 0
53 5 -54 0
-53 5 54 0
53 -5 54 0
-55 52 0
-55 54 0
-52 -54 55 0
-56 45 0
-56 -55 0
-45 55 56 0
57 39 0
57 12 0
-39 -12 -57 0
-58 5 0
-58 -53 0
-5 53 58 0
-59 -3 0
-59 -14 0
3 14 59 0
60 -14 0
60 -24 0
14 24 -60 0
3 -60 -61 0
-3 60 -61 0
3 60 61 0
-3 -60 61 0
-62 20 0
-62 61 0
-20 -61 62 0
63 59 0
63 62 0
-59 -62 -63 0
-58 -63 -64 0
58 63 -64 0
-58 63 64 0
58 -63 64 0
18 31 -65 0
-18 -31 -65 0
18 -31 65 0
-18 31 65 0
-65 31 -66 0
65 -31 -66 0
-65 -31 66 0
65 31 66 0
-68 -18 0
-68 -67 0
18 67 68 0
-69 48 0
-69 -24 0
-48 24 69 0
-68 69 -70 0
68 -69 -70 0
-68 -69 70 0
68 69 70 0
-71 66 0
-71 -70 0
-66 70 71 0
-72 64 0
-72 -71 0
-64 71 72 0
57 72 -73 0
-57 -72 -73 0
57 -72 73 0
-57 72 73 0
56 73 -74 0
-56 -73 -74 0
56 -73 74 0
-56 73 74 0
75 23 0
75 74 0
-23 -74 -75 0
76 38 0
76 -4 0
-38 4 -76 0
76 -65 -77 0
-76 65 -77 0
76 65 77 0
-76 -65 77 0
-78 31 0
-78 18 0
-31 -18 78 0
-79 -77 0
-79 -78 0
77 78 79 0
80 -48 0
80 1 0
48 -1 -80 0
-16 -53 -81 0
16 53 -81 0
-16 53 81 0
16 -53 81 0
-82 -8 0
-82 1 0
8 -1 82 0
-83 -81 0
-83 -82 0
81 82 83 0
-84 -39 0
-84 -15 0
39 15 84 0
83 84 -85 0
-83 -84 -85 0
83 -84 85 0
-83 84 85 0
-86 80 0
-86 85 0
-80 -85 86 0
-87 -79 0
-87 86 0
79 -86 87 0
-88 2 0
-88 18 0
-2 -18 88 0
-89 48 0
-89 25 0
-48 -25 89 0
-1 89 -90 0
1 -89 -90 0
-1 -89 90 0
1 89 90 0
-88 90 -91 0
88 -90 -91 0
-88 -90 91 0
88 90 91 0
-87 91 -92 0
87 -91 -92 0
-87 -91 92 0
87 91 92 0
93 75 0
93 -92 0
-75 92 -93 0
65 -49 -88 -63 0
-32 93 67 0
61 49 53 -21 0
43 88 73 26 0
79 -43 -17 0
-36 84 6 51 0
15 64 73 -71 63 0
-77 -56 41 -10 0
-8 77 -26 43 0
20 28 25 -91 -33 0
58 83 -85 -65 0
-34 -19 -40 -88 0
79 -22 8 0
78 -40 -25 -1 0
86 20 45 0
50 75 27 0
-89 -10 87 85 41 0
-25 82 -56 2 0
93 -5 -57 35 0
11 -89 0
-87 -55 78 65 -8 0
44 -51 0
71 -80 37 -72 0
-84 22 31 30 34 0
-43 -4 85 -60 3 0
-50 21 -58 -37 0
27 -9 52 0
57 -24 -62 -28 1 0
-32 -83 89 -50 92 4 0
-89 58 0
44 67 85 81 0
37 -6 -56 45 80 -3 0
88 26 0
92 -91 80 7 -85 0
49 14 5 40 0
28 -67 -45 -32 -75 -78 0
44 -84 -55 81 -51 0
61 -11 53 33 -22 0
-2 55 0
-4 75 23 0
-12 -9 -32 88 -64 0
84 -24 0
78 -30 -17 -1 42 -52 0
-30 -27 0
-17 34 -59 0
45 44 -10 43 88 59 0
-3 66 0
29 52 0
-65 90 -9 0
-10 73 69 0
-49 -55 -58 9 0
-65 -90 -5 0
93 0
